c File: flat175_3_0.col
c
c SOURCE: Joseph Culberson (joe@cs.ualberta.ca)
c DESCRIPTION: Quasi-random coloring problem
c              generated with flatness = 0
c                             probability = 0.041
c                             known coloring = 3
c                             random seed = 1055
c              Creation Date:  Wed Feb 24 10:55:16 1999
c Maximum degree = 8 Minimum degree = 0
c COLOR VERIFICATION: Using the permuted order
c under simple greedy yields the specified
c coloring number
c Color = 3 specified partitions = 3
c p edge 175 417
c cnf created by edge2cnf
p cnf 525 1951
-1 -2 0
-1 -3 0
-2 -3 0
1 2 3 0
-4 -5 0
-4 -6 0
-5 -6 0
4 5 6 0
-7 -8 0
-7 -9 0
-8 -9 0
7 8 9 0
-10 -11 0
-10 -12 0
-11 -12 0
10 11 12 0
-13 -14 0
-13 -15 0
-14 -15 0
13 14 15 0
-16 -17 0
-16 -18 0
-17 -18 0
16 17 18 0
-19 -20 0
-19 -21 0
-20 -21 0
19 20 21 0
-22 -23 0
-22 -24 0
-23 -24 0
22 23 24 0
-25 -26 0
-25 -27 0
-26 -27 0
25 26 27 0
-28 -29 0
-28 -30 0
-29 -30 0
28 29 30 0
-31 -32 0
-31 -33 0
-32 -33 0
31 32 33 0
-34 -35 0
-34 -36 0
-35 -36 0
34 35 36 0
-37 -38 0
-37 -39 0
-38 -39 0
37 38 39 0
-40 -41 0
-40 -42 0
-41 -42 0
40 41 42 0
-43 -44 0
-43 -45 0
-44 -45 0
43 44 45 0
-46 -47 0
-46 -48 0
-47 -48 0
46 47 48 0
-49 -50 0
-49 -51 0
-50 -51 0
49 50 51 0
-52 -53 0
-52 -54 0
-53 -54 0
52 53 54 0
-55 -56 0
-55 -57 0
-56 -57 0
55 56 57 0
-58 -59 0
-58 -60 0
-59 -60 0
58 59 60 0
-61 -62 0
-61 -63 0
-62 -63 0
61 62 63 0
-64 -65 0
-64 -66 0
-65 -66 0
64 65 66 0
-67 -68 0
-67 -69 0
-68 -69 0
67 68 69 0
-70 -71 0
-70 -72 0
-71 -72 0
70 71 72 0
-73 -74 0
-73 -75 0
-74 -75 0
73 74 75 0
-76 -77 0
-76 -78 0
-77 -78 0
76 77 78 0
-79 -80 0
-79 -81 0
-80 -81 0
79 80 81 0
-82 -83 0
-82 -84 0
-83 -84 0
82 83 84 0
-85 -86 0
-85 -87 0
-86 -87 0
85 86 87 0
-88 -89 0
-88 -90 0
-89 -90 0
88 89 90 0
-91 -92 0
-91 -93 0
-92 -93 0
91 92 93 0
-94 -95 0
-94 -96 0
-95 -96 0
94 95 96 0
-97 -98 0
-97 -99 0
-98 -99 0
97 98 99 0
-100 -101 0
-100 -102 0
-101 -102 0
100 101 102 0
-103 -104 0
-103 -105 0
-104 -105 0
103 104 105 0
-106 -107 0
-106 -108 0
-107 -108 0
106 107 108 0
-109 -110 0
-109 -111 0
-110 -111 0
109 110 111 0
-112 -113 0
-112 -114 0
-113 -114 0
112 113 114 0
-115 -116 0
-115 -117 0
-116 -117 0
115 116 117 0
-118 -119 0
-118 -120 0
-119 -120 0
118 119 120 0
-121 -122 0
-121 -123 0
-122 -123 0
121 122 123 0
-124 -125 0
-124 -126 0
-125 -126 0
124 125 126 0
-127 -128 0
-127 -129 0
-128 -129 0
127 128 129 0
-130 -131 0
-130 -132 0
-131 -132 0
130 131 132 0
-133 -134 0
-133 -135 0
-134 -135 0
133 134 135 0
-136 -137 0
-136 -138 0
-137 -138 0
136 137 138 0
-139 -140 0
-139 -141 0
-140 -141 0
139 140 141 0
-142 -143 0
-142 -144 0
-143 -144 0
142 143 144 0
-145 -146 0
-145 -147 0
-146 -147 0
145 146 147 0
-148 -149 0
-148 -150 0
-149 -150 0
148 149 150 0
-151 -152 0
-151 -153 0
-152 -153 0
151 152 153 0
-154 -155 0
-154 -156 0
-155 -156 0
154 155 156 0
-157 -158 0
-157 -159 0
-158 -159 0
157 158 159 0
-160 -161 0
-160 -162 0
-161 -162 0
160 161 162 0
-163 -164 0
-163 -165 0
-164 -165 0
163 164 165 0
-166 -167 0
-166 -168 0
-167 -168 0
166 167 168 0
-169 -170 0
-169 -171 0
-170 -171 0
169 170 171 0
-172 -173 0
-172 -174 0
-173 -174 0
172 173 174 0
-175 -176 0
-175 -177 0
-176 -177 0
175 176 177 0
-178 -179 0
-178 -180 0
-179 -180 0
178 179 180 0
-181 -182 0
-181 -183 0
-182 -183 0
181 182 183 0
-184 -185 0
-184 -186 0
-185 -186 0
184 185 186 0
-187 -188 0
-187 -189 0
-188 -189 0
187 188 189 0
-190 -191 0
-190 -192 0
-191 -192 0
190 191 192 0
-193 -194 0
-193 -195 0
-194 -195 0
193 194 195 0
-196 -197 0
-196 -198 0
-197 -198 0
196 197 198 0
-199 -200 0
-199 -201 0
-200 -201 0
199 200 201 0
-202 -203 0
-202 -204 0
-203 -204 0
202 203 204 0
-205 -206 0
-205 -207 0
-206 -207 0
205 206 207 0
-208 -209 0
-208 -210 0
-209 -210 0
208 209 210 0
-211 -212 0
-211 -213 0
-212 -213 0
211 212 213 0
-214 -215 0
-214 -216 0
-215 -216 0
214 215 216 0
-217 -218 0
-217 -219 0
-218 -219 0
217 218 219 0
-220 -221 0
-220 -222 0
-221 -222 0
220 221 222 0
-223 -224 0
-223 -225 0
-224 -225 0
223 224 225 0
-226 -227 0
-226 -228 0
-227 -228 0
226 227 228 0
-229 -230 0
-229 -231 0
-230 -231 0
229 230 231 0
-232 -233 0
-232 -234 0
-233 -234 0
232 233 234 0
-235 -236 0
-235 -237 0
-236 -237 0
235 236 237 0
-238 -239 0
-238 -240 0
-239 -240 0
238 239 240 0
-241 -242 0
-241 -243 0
-242 -243 0
241 242 243 0
-244 -245 0
-244 -246 0
-245 -246 0
244 245 246 0
-247 -248 0
-247 -249 0
-248 -249 0
247 248 249 0
-250 -251 0
-250 -252 0
-251 -252 0
250 251 252 0
-253 -254 0
-253 -255 0
-254 -255 0
253 254 255 0
-256 -257 0
-256 -258 0
-257 -258 0
256 257 258 0
-259 -260 0
-259 -261 0
-260 -261 0
259 260 261 0
-262 -263 0
-262 -264 0
-263 -264 0
262 263 264 0
-265 -266 0
-265 -267 0
-266 -267 0
265 266 267 0
-268 -269 0
-268 -270 0
-269 -270 0
268 269 270 0
-271 -272 0
-271 -273 0
-272 -273 0
271 272 273 0
-274 -275 0
-274 -276 0
-275 -276 0
274 275 276 0
-277 -278 0
-277 -279 0
-278 -279 0
277 278 279 0
-280 -281 0
-280 -282 0
-281 -282 0
280 281 282 0
-283 -284 0
-283 -285 0
-284 -285 0
283 284 285 0
-286 -287 0
-286 -288 0
-287 -288 0
286 287 288 0
-289 -290 0
-289 -291 0
-290 -291 0
289 290 291 0
-292 -293 0
-292 -294 0
-293 -294 0
292 293 294 0
-295 -296 0
-295 -297 0
-296 -297 0
295 296 297 0
-298 -299 0
-298 -300 0
-299 -300 0
298 299 300 0
-301 -302 0
-301 -303 0
-302 -303 0
301 302 303 0
-304 -305 0
-304 -306 0
-305 -306 0
304 305 306 0
-307 -308 0
-307 -309 0
-308 -309 0
307 308 309 0
-310 -311 0
-310 -312 0
-311 -312 0
310 311 312 0
-313 -314 0
-313 -315 0
-314 -315 0
313 314 315 0
-316 -317 0
-316 -318 0
-317 -318 0
316 317 318 0
-319 -320 0
-319 -321 0
-320 -321 0
319 320 321 0
-322 -323 0
-322 -324 0
-323 -324 0
322 323 324 0
-325 -326 0
-325 -327 0
-326 -327 0
325 326 327 0
-328 -329 0
-328 -330 0
-329 -330 0
328 329 330 0
-331 -332 0
-331 -333 0
-332 -333 0
331 332 333 0
-334 -335 0
-334 -336 0
-335 -336 0
334 335 336 0
-337 -338 0
-337 -339 0
-338 -339 0
337 338 339 0
-340 -341 0
-340 -342 0
-341 -342 0
340 341 342 0
-343 -344 0
-343 -345 0
-344 -345 0
343 344 345 0
-346 -347 0
-346 -348 0
-347 -348 0
346 347 348 0
-349 -350 0
-349 -351 0
-350 -351 0
349 350 351 0
-352 -353 0
-352 -354 0
-353 -354 0
352 353 354 0
-355 -356 0
-355 -357 0
-356 -357 0
355 356 357 0
-358 -359 0
-358 -360 0
-359 -360 0
358 359 360 0
-361 -362 0
-361 -363 0
-362 -363 0
361 362 363 0
-364 -365 0
-364 -366 0
-365 -366 0
364 365 366 0
-367 -368 0
-367 -369 0
-368 -369 0
367 368 369 0
-370 -371 0
-370 -372 0
-371 -372 0
370 371 372 0
-373 -374 0
-373 -375 0
-374 -375 0
373 374 375 0
-376 -377 0
-376 -378 0
-377 -378 0
376 377 378 0
-379 -380 0
-379 -381 0
-380 -381 0
379 380 381 0
-382 -383 0
-382 -384 0
-383 -384 0
382 383 384 0
-385 -386 0
-385 -387 0
-386 -387 0
385 386 387 0
-388 -389 0
-388 -390 0
-389 -390 0
388 389 390 0
-391 -392 0
-391 -393 0
-392 -393 0
391 392 393 0
-394 -395 0
-394 -396 0
-395 -396 0
394 395 396 0
-397 -398 0
-397 -399 0
-398 -399 0
397 398 399 0
-400 -401 0
-400 -402 0
-401 -402 0
400 401 402 0
-403 -404 0
-403 -405 0
-404 -405 0
403 404 405 0
-406 -407 0
-406 -408 0
-407 -408 0
406 407 408 0
-409 -410 0
-409 -411 0
-410 -411 0
409 410 411 0
-412 -413 0
-412 -414 0
-413 -414 0
412 413 414 0
-415 -416 0
-415 -417 0
-416 -417 0
415 416 417 0
-418 -419 0
-418 -420 0
-419 -420 0
418 419 420 0
-421 -422 0
-421 -423 0
-422 -423 0
421 422 423 0
-424 -425 0
-424 -426 0
-425 -426 0
424 425 426 0
-427 -428 0
-427 -429 0
-428 -429 0
427 428 429 0
-430 -431 0
-430 -432 0
-431 -432 0
430 431 432 0
-433 -434 0
-433 -435 0
-434 -435 0
433 434 435 0
-436 -437 0
-436 -438 0
-437 -438 0
436 437 438 0
-439 -440 0
-439 -441 0
-440 -441 0
439 440 441 0
-442 -443 0
-442 -444 0
-443 -444 0
442 443 444 0
-445 -446 0
-445 -447 0
-446 -447 0
445 446 447 0
-448 -449 0
-448 -450 0
-449 -450 0
448 449 450 0
-451 -452 0
-451 -453 0
-452 -453 0
451 452 453 0
-454 -455 0
-454 -456 0
-455 -456 0
454 455 456 0
-457 -458 0
-457 -459 0
-458 -459 0
457 458 459 0
-460 -461 0
-460 -462 0
-461 -462 0
460 461 462 0
-463 -464 0
-463 -465 0
-464 -465 0
463 464 465 0
-466 -467 0
-466 -468 0
-467 -468 0
466 467 468 0
-469 -470 0
-469 -471 0
-470 -471 0
469 470 471 0
-472 -473 0
-472 -474 0
-473 -474 0
472 473 474 0
-475 -476 0
-475 -477 0
-476 -477 0
475 476 477 0
-478 -479 0
-478 -480 0
-479 -480 0
478 479 480 0
-481 -482 0
-481 -483 0
-482 -483 0
481 482 483 0
-484 -485 0
-484 -486 0
-485 -486 0
484 485 486 0
-487 -488 0
-487 -489 0
-488 -489 0
487 488 489 0
-490 -491 0
-490 -492 0
-491 -492 0
490 491 492 0
-493 -494 0
-493 -495 0
-494 -495 0
493 494 495 0
-496 -497 0
-496 -498 0
-497 -498 0
496 497 498 0
-499 -500 0
-499 -501 0
-500 -501 0
499 500 501 0
-502 -503 0
-502 -504 0
-503 -504 0
502 503 504 0
-505 -506 0
-505 -507 0
-506 -507 0
505 506 507 0
-508 -509 0
-508 -510 0
-509 -510 0
508 509 510 0
-511 -512 0
-511 -513 0
-512 -513 0
511 512 513 0
-514 -515 0
-514 -516 0
-515 -516 0
514 515 516 0
-517 -518 0
-517 -519 0
-518 -519 0
517 518 519 0
-520 -521 0
-520 -522 0
-521 -522 0
520 521 522 0
-523 -524 0
-523 -525 0
-524 -525 0
523 524 525 0
-91 -1 0
-92 -2 0
-93 -3 0
-415 -1 0
-416 -2 0
-417 -3 0
-193 -4 0
-194 -5 0
-195 -6 0
-373 -4 0
-374 -5 0
-375 -6 0
-10 -7 0
-11 -8 0
-12 -9 0
-160 -7 0
-161 -8 0
-162 -9 0
-304 -7 0
-305 -8 0
-306 -9 0
-346 -7 0
-347 -8 0
-348 -9 0
-142 -10 0
-143 -11 0
-144 -12 0
-157 -10 0
-158 -11 0
-159 -12 0
-292 -10 0
-293 -11 0
-294 -12 0
-379 -10 0
-380 -11 0
-381 -12 0
-448 -10 0
-449 -11 0
-450 -12 0
-451 -10 0
-452 -11 0
-453 -12 0
-505 -10 0
-506 -11 0
-507 -12 0
-175 -13 0
-176 -14 0
-177 -15 0
-319 -13 0
-320 -14 0
-321 -15 0
-358 -13 0
-359 -14 0
-360 -15 0
-424 -16 0
-425 -17 0
-426 -18 0
-481 -16 0
-482 -17 0
-483 -18 0
-58 -19 0
-59 -20 0
-60 -21 0
-373 -19 0
-374 -20 0
-375 -21 0
-397 -19 0
-398 -20 0
-399 -21 0
-430 -19 0
-431 -20 0
-432 -21 0
-445 -19 0
-446 -20 0
-447 -21 0
-253 -22 0
-254 -23 0
-255 -24 0
-298 -22 0
-299 -23 0
-300 -24 0
-484 -22 0
-485 -23 0
-486 -24 0
-34 -25 0
-35 -26 0
-36 -27 0
-229 -25 0
-230 -26 0
-231 -27 0
-241 -25 0
-242 -26 0
-243 -27 0
-244 -25 0
-245 -26 0
-246 -27 0
-274 -25 0
-275 -26 0
-276 -27 0
-364 -25 0
-365 -26 0
-366 -27 0
-367 -25 0
-368 -26 0
-369 -27 0
-73 -28 0
-74 -29 0
-75 -30 0
-85 -28 0
-86 -29 0
-87 -30 0
-304 -28 0
-305 -29 0
-306 -30 0
-493 -28 0
-494 -29 0
-495 -30 0
-46 -31 0
-47 -32 0
-48 -33 0
-67 -31 0
-68 -32 0
-69 -33 0
-259 -31 0
-260 -32 0
-261 -33 0
-355 -31 0
-356 -32 0
-357 -33 0
-385 -31 0
-386 -32 0
-387 -33 0
-397 -31 0
-398 -32 0
-399 -33 0
-412 -31 0
-413 -32 0
-414 -33 0
-418 -31 0
-419 -32 0
-420 -33 0
-88 -34 0
-89 -35 0
-90 -36 0
-97 -34 0
-98 -35 0
-99 -36 0
-247 -34 0
-248 -35 0
-249 -36 0
-232 -37 0
-233 -38 0
-234 -39 0
-307 -37 0
-308 -38 0
-309 -39 0
-373 -37 0
-374 -38 0
-375 -39 0
-385 -37 0
-386 -38 0
-387 -39 0
-448 -37 0
-449 -38 0
-450 -39 0
-172 -40 0
-173 -41 0
-174 -42 0
-250 -40 0
-251 -41 0
-252 -42 0
-346 -40 0
-347 -41 0
-348 -42 0
-82 -43 0
-83 -44 0
-84 -45 0
-274 -43 0
-275 -44 0
-276 -45 0
-310 -43 0
-311 -44 0
-312 -45 0
-412 -43 0
-413 -44 0
-414 -45 0
-466 -43 0
-467 -44 0
-468 -45 0
-106 -46 0
-107 -47 0
-108 -48 0
-205 -46 0
-206 -47 0
-207 -48 0
-232 -46 0
-233 -47 0
-234 -48 0
-439 -46 0
-440 -47 0
-441 -48 0
-460 -46 0
-461 -47 0
-462 -48 0
-499 -46 0
-500 -47 0
-501 -48 0
-112 -49 0
-113 -50 0
-114 -51 0
-175 -49 0
-176 -50 0
-177 -51 0
-208 -49 0
-209 -50 0
-210 -51 0
-85 -52 0
-86 -53 0
-87 -54 0
-115 -52 0
-116 -53 0
-117 -54 0
-244 -52 0
-245 -53 0
-246 -54 0
-358 -52 0
-359 -53 0
-360 -54 0
-499 -52 0
-500 -53 0
-501 -54 0
-124 -55 0
-125 -56 0
-126 -57 0
-133 -55 0
-134 -56 0
-135 -57 0
-151 -55 0
-152 -56 0
-153 -57 0
-187 -55 0
-188 -56 0
-189 -57 0
-202 -55 0
-203 -56 0
-204 -57 0
-262 -55 0
-263 -56 0
-264 -57 0
-163 -58 0
-164 -59 0
-165 -60 0
-208 -58 0
-209 -59 0
-210 -60 0
-355 -58 0
-356 -59 0
-357 -60 0
-469 -58 0
-470 -59 0
-471 -60 0
-490 -58 0
-491 -59 0
-492 -60 0
-127 -61 0
-128 -62 0
-129 -63 0
-166 -61 0
-167 -62 0
-168 -63 0
-247 -61 0
-248 -62 0
-249 -63 0
-349 -61 0
-350 -62 0
-351 -63 0
-475 -61 0
-476 -62 0
-477 -63 0
-481 -61 0
-482 -62 0
-483 -63 0
-259 -64 0
-260 -65 0
-261 -66 0
-403 -64 0
-404 -65 0
-405 -66 0
-415 -64 0
-416 -65 0
-417 -66 0
-454 -64 0
-455 -65 0
-456 -66 0
-523 -64 0
-524 -65 0
-525 -66 0
-151 -67 0
-152 -68 0
-153 -69 0
-205 -67 0
-206 -68 0
-207 -69 0
-214 -67 0
-215 -68 0
-216 -69 0
-292 -67 0
-293 -68 0
-294 -69 0
-319 -67 0
-320 -68 0
-321 -69 0
-361 -67 0
-362 -68 0
-363 -69 0
-478 -67 0
-479 -68 0
-480 -69 0
-166 -70 0
-167 -71 0
-168 -72 0
-214 -70 0
-215 -71 0
-216 -72 0
-292 -70 0
-293 -71 0
-294 -72 0
-295 -70 0
-296 -71 0
-297 -72 0
-385 -70 0
-386 -71 0
-387 -72 0
-439 -70 0
-440 -71 0
-441 -72 0
-508 -70 0
-509 -71 0
-510 -72 0
-178 -73 0
-179 -74 0
-180 -75 0
-259 -73 0
-260 -74 0
-261 -75 0
-463 -73 0
-464 -74 0
-465 -75 0
-292 -76 0
-293 -77 0
-294 -78 0
-361 -76 0
-362 -77 0
-363 -78 0
-94 -79 0
-95 -80 0
-96 -81 0
-142 -79 0
-143 -80 0
-144 -81 0
-352 -79 0
-353 -80 0
-354 -81 0
-361 -79 0
-362 -80 0
-363 -81 0
-511 -79 0
-512 -80 0
-513 -81 0
-514 -79 0
-515 -80 0
-516 -81 0
-115 -82 0
-116 -83 0
-117 -84 0
-268 -82 0
-269 -83 0
-270 -84 0
-280 -82 0
-281 -83 0
-282 -84 0
-454 -82 0
-455 -83 0
-456 -84 0
-88 -85 0
-89 -86 0
-90 -87 0
-301 -85 0
-302 -86 0
-303 -87 0
-496 -85 0
-497 -86 0
-498 -87 0
-190 -88 0
-191 -89 0
-192 -90 0
-229 -88 0
-230 -89 0
-231 -90 0
-325 -88 0
-326 -89 0
-327 -90 0
-418 -88 0
-419 -89 0
-420 -90 0
-133 -91 0
-134 -92 0
-135 -93 0
-190 -91 0
-191 -92 0
-192 -93 0
-340 -91 0
-341 -92 0
-342 -93 0
-451 -91 0
-452 -92 0
-453 -93 0
-202 -94 0
-203 -95 0
-204 -96 0
-373 -94 0
-374 -95 0
-375 -96 0
-385 -94 0
-386 -95 0
-387 -96 0
-409 -94 0
-410 -95 0
-411 -96 0
-427 -94 0
-428 -95 0
-429 -96 0
-445 -94 0
-446 -95 0
-447 -96 0
-508 -94 0
-509 -95 0
-510 -96 0
-208 -97 0
-209 -98 0
-210 -99 0
-232 -97 0
-233 -98 0
-234 -99 0
-295 -97 0
-296 -98 0
-297 -99 0
-298 -97 0
-299 -98 0
-300 -99 0
-334 -97 0
-335 -98 0
-336 -99 0
-481 -97 0
-482 -98 0
-483 -99 0
-136 -100 0
-137 -101 0
-138 -102 0
-157 -100 0
-158 -101 0
-159 -102 0
-400 -100 0
-401 -101 0
-402 -102 0
-409 -100 0
-410 -101 0
-411 -102 0
-475 -100 0
-476 -101 0
-477 -102 0
-223 -103 0
-224 -104 0
-225 -105 0
-289 -103 0
-290 -104 0
-291 -105 0
-337 -103 0
-338 -104 0
-339 -105 0
-361 -103 0
-362 -104 0
-363 -105 0
-448 -103 0
-449 -104 0
-450 -105 0
-121 -106 0
-122 -107 0
-123 -108 0
-139 -106 0
-140 -107 0
-141 -108 0
-193 -106 0
-194 -107 0
-195 -108 0
-244 -106 0
-245 -107 0
-246 -108 0
-445 -106 0
-446 -107 0
-447 -108 0
-451 -106 0
-452 -107 0
-453 -108 0
-499 -106 0
-500 -107 0
-501 -108 0
-301 -109 0
-302 -110 0
-303 -111 0
-325 -109 0
-326 -110 0
-327 -111 0
-508 -109 0
-509 -110 0
-510 -111 0
-517 -109 0
-518 -110 0
-519 -111 0
-130 -112 0
-131 -113 0
-132 -114 0
-166 -112 0
-167 -113 0
-168 -114 0
-283 -112 0
-284 -113 0
-285 -114 0
-412 -112 0
-413 -113 0
-414 -114 0
-502 -112 0
-503 -113 0
-504 -114 0
-157 -115 0
-158 -116 0
-159 -117 0
-181 -115 0
-182 -116 0
-183 -117 0
-205 -115 0
-206 -116 0
-207 -117 0
-331 -115 0
-332 -116 0
-333 -117 0
-367 -115 0
-368 -116 0
-369 -117 0
-208 -118 0
-209 -119 0
-210 -120 0
-361 -121 0
-362 -122 0
-363 -123 0
-385 -121 0
-386 -122 0
-387 -123 0
-445 -121 0
-446 -122 0
-447 -123 0
-145 -124 0
-146 -125 0
-147 -126 0
-496 -124 0
-497 -125 0
-498 -126 0
-142 -127 0
-143 -128 0
-144 -129 0
-151 -127 0
-152 -128 0
-153 -129 0
-154 -127 0
-155 -128 0
-156 -129 0
-277 -127 0
-278 -128 0
-279 -129 0
-301 -127 0
-302 -128 0
-303 -129 0
-337 -127 0
-338 -128 0
-339 -129 0
-349 -127 0
-350 -128 0
-351 -129 0
-169 -130 0
-170 -131 0
-171 -132 0
-187 -130 0
-188 -131 0
-189 -132 0
-256 -130 0
-257 -131 0
-258 -132 0
-442 -130 0
-443 -131 0
-444 -132 0
-508 -130 0
-509 -131 0
-510 -132 0
-409 -133 0
-410 -134 0
-411 -135 0
-415 -133 0
-416 -134 0
-417 -135 0
-370 -136 0
-371 -137 0
-372 -138 0
-400 -136 0
-401 -137 0
-402 -138 0
-415 -136 0
-416 -137 0
-417 -138 0
-481 -136 0
-482 -137 0
-483 -138 0
-487 -136 0
-488 -137 0
-489 -138 0
-352 -139 0
-353 -140 0
-354 -141 0
-433 -139 0
-434 -140 0
-435 -141 0
-193 -142 0
-194 -143 0
-195 -144 0
-199 -142 0
-200 -143 0
-201 -144 0
-487 -142 0
-488 -143 0
-489 -144 0
-505 -142 0
-506 -143 0
-507 -144 0
-523 -142 0
-524 -143 0
-525 -144 0
-331 -145 0
-332 -146 0
-333 -147 0
-475 -145 0
-476 -146 0
-477 -147 0
-184 -148 0
-185 -149 0
-186 -150 0
-214 -148 0
-215 -149 0
-216 -150 0
-256 -148 0
-257 -149 0
-258 -150 0
-295 -148 0
-296 -149 0
-297 -150 0
-433 -148 0
-434 -149 0
-435 -150 0
-316 -154 0
-317 -155 0
-318 -156 0
-496 -154 0
-497 -155 0
-498 -156 0
-319 -157 0
-320 -158 0
-321 -159 0
-256 -160 0
-257 -161 0
-258 -162 0
-286 -160 0
-287 -161 0
-288 -162 0
-346 -160 0
-347 -161 0
-348 -162 0
-352 -160 0
-353 -161 0
-354 -162 0
-430 -160 0
-431 -161 0
-432 -162 0
-166 -163 0
-167 -164 0
-168 -165 0
-484 -163 0
-485 -164 0
-486 -165 0
-322 -166 0
-323 -167 0
-324 -168 0
-496 -166 0
-497 -167 0
-498 -168 0
-277 -169 0
-278 -170 0
-279 -171 0
-313 -169 0
-314 -170 0
-315 -171 0
-505 -169 0
-506 -170 0
-507 -171 0
-259 -172 0
-260 -173 0
-261 -174 0
-409 -172 0
-410 -173 0
-411 -174 0
-469 -172 0
-470 -173 0
-471 -174 0
-184 -175 0
-185 -176 0
-186 -177 0
-271 -175 0
-272 -176 0
-273 -177 0
-472 -175 0
-473 -176 0
-474 -177 0
-511 -175 0
-512 -176 0
-513 -177 0
-343 -178 0
-344 -179 0
-345 -180 0
-346 -178 0
-347 -179 0
-348 -180 0
-454 -178 0
-455 -179 0
-456 -180 0
-505 -178 0
-506 -179 0
-507 -180 0
-262 -181 0
-263 -182 0
-264 -183 0
-301 -181 0
-302 -182 0
-303 -183 0
-361 -181 0
-362 -182 0
-363 -183 0
-403 -181 0
-404 -182 0
-405 -183 0
-457 -181 0
-458 -182 0
-459 -183 0
-208 -184 0
-209 -185 0
-210 -186 0
-337 -184 0
-338 -185 0
-339 -186 0
-364 -184 0
-365 -185 0
-366 -186 0
-496 -184 0
-497 -185 0
-498 -186 0
-274 -187 0
-275 -188 0
-276 -189 0
-295 -187 0
-296 -188 0
-297 -189 0
-358 -190 0
-359 -191 0
-360 -192 0
-493 -190 0
-494 -191 0
-495 -192 0
-325 -193 0
-326 -194 0
-327 -195 0
-439 -193 0
-440 -194 0
-441 -195 0
-199 -196 0
-200 -197 0
-201 -198 0
-397 -196 0
-398 -197 0
-399 -198 0
-475 -196 0
-476 -197 0
-477 -198 0
-211 -199 0
-212 -200 0
-213 -201 0
-253 -199 0
-254 -200 0
-255 -201 0
-265 -199 0
-266 -200 0
-267 -201 0
-394 -199 0
-395 -200 0
-396 -201 0
-484 -199 0
-485 -200 0
-486 -201 0
-448 -202 0
-449 -203 0
-450 -204 0
-391 -205 0
-392 -206 0
-393 -207 0
-433 -205 0
-434 -206 0
-435 -207 0
-436 -205 0
-437 -206 0
-438 -207 0
-391 -208 0
-392 -209 0
-393 -210 0
-412 -208 0
-413 -209 0
-414 -210 0
-520 -208 0
-521 -209 0
-522 -210 0
-355 -211 0
-356 -212 0
-357 -213 0
-373 -211 0
-374 -212 0
-375 -213 0
-520 -211 0
-521 -212 0
-522 -213 0
-238 -214 0
-239 -215 0
-240 -216 0
-319 -214 0
-320 -215 0
-321 -216 0
-373 -217 0
-374 -218 0
-375 -219 0
-394 -217 0
-395 -218 0
-396 -219 0
-304 -220 0
-305 -221 0
-306 -222 0
-460 -220 0
-461 -221 0
-462 -222 0
-463 -223 0
-464 -224 0
-465 -225 0
-496 -223 0
-497 -224 0
-498 -225 0
-244 -226 0
-245 -227 0
-246 -228 0
-265 -226 0
-266 -227 0
-267 -228 0
-316 -226 0
-317 -227 0
-318 -228 0
-478 -226 0
-479 -227 0
-480 -228 0
-289 -229 0
-290 -230 0
-291 -231 0
-277 -232 0
-278 -233 0
-279 -234 0
-379 -232 0
-380 -233 0
-381 -234 0
-385 -232 0
-386 -233 0
-387 -234 0
-412 -232 0
-413 -233 0
-414 -234 0
-244 -238 0
-245 -239 0
-246 -240 0
-322 -238 0
-323 -239 0
-324 -240 0
-325 -238 0
-326 -239 0
-327 -240 0
-454 -238 0
-455 -239 0
-456 -240 0
-469 -238 0
-470 -239 0
-471 -240 0
-271 -241 0
-272 -242 0
-273 -243 0
-322 -241 0
-323 -242 0
-324 -243 0
-391 -241 0
-392 -242 0
-393 -243 0
-448 -241 0
-449 -242 0
-450 -243 0
-277 -244 0
-278 -245 0
-279 -246 0
-499 -244 0
-500 -245 0
-501 -246 0
-421 -247 0
-422 -248 0
-423 -249 0
-505 -247 0
-506 -248 0
-507 -249 0
-523 -247 0
-524 -248 0
-525 -249 0
-295 -250 0
-296 -251 0
-297 -252 0
-367 -253 0
-368 -254 0
-369 -255 0
-283 -256 0
-284 -257 0
-285 -258 0
-298 -256 0
-299 -257 0
-300 -258 0
-346 -256 0
-347 -257 0
-348 -258 0
-478 -256 0
-479 -257 0
-480 -258 0
-487 -256 0
-488 -257 0
-489 -258 0
-307 -259 0
-308 -260 0
-309 -261 0
-319 -259 0
-320 -260 0
-321 -261 0
-388 -259 0
-389 -260 0
-390 -261 0
-517 -259 0
-518 -260 0
-519 -261 0
-298 -262 0
-299 -263 0
-300 -264 0
-337 -262 0
-338 -263 0
-339 -264 0
-451 -262 0
-452 -263 0
-453 -264 0
-283 -268 0
-284 -269 0
-285 -270 0
-322 -268 0
-323 -269 0
-324 -270 0
-349 -268 0
-350 -269 0
-351 -270 0
-481 -268 0
-482 -269 0
-483 -270 0
-502 -268 0
-503 -269 0
-504 -270 0
-493 -271 0
-494 -272 0
-495 -273 0
-334 -274 0
-335 -275 0
-336 -276 0
-334 -277 0
-335 -278 0
-336 -279 0
-313 -280 0
-314 -281 0
-315 -282 0
-379 -280 0
-380 -281 0
-381 -282 0
-502 -283 0
-503 -284 0
-504 -285 0
-418 -286 0
-419 -287 0
-420 -288 0
-370 -289 0
-371 -290 0
-372 -291 0
-511 -289 0
-512 -290 0
-513 -291 0
-301 -292 0
-302 -293 0
-303 -294 0
-490 -298 0
-491 -299 0
-492 -300 0
-403 -301 0
-404 -302 0
-405 -303 0
-373 -304 0
-374 -305 0
-375 -306 0
-430 -307 0
-431 -308 0
-432 -309 0
-436 -307 0
-437 -308 0
-438 -309 0
-382 -310 0
-383 -311 0
-384 -312 0
-463 -310 0
-464 -311 0
-465 -312 0
-448 -313 0
-449 -314 0
-450 -315 0
-337 -316 0
-338 -317 0
-339 -318 0
-430 -316 0
-431 -317 0
-432 -318 0
-481 -316 0
-482 -317 0
-483 -318 0
-520 -316 0
-521 -317 0
-522 -318 0
-523 -316 0
-524 -317 0
-525 -318 0
-325 -319 0
-326 -320 0
-327 -321 0
-454 -319 0
-455 -320 0
-456 -321 0
-472 -319 0
-473 -320 0
-474 -321 0
-379 -322 0
-380 -323 0
-381 -324 0
-427 -322 0
-428 -323 0
-429 -324 0
-433 -325 0
-434 -326 0
-435 -327 0
-397 -328 0
-398 -329 0
-399 -330 0
-367 -331 0
-368 -332 0
-369 -333 0
-421 -331 0
-422 -332 0
-423 -333 0
-364 -334 0
-365 -335 0
-366 -336 0
-439 -334 0
-440 -335 0
-441 -336 0
-463 -337 0
-464 -338 0
-465 -339 0
-355 -340 0
-356 -341 0
-357 -342 0
-382 -340 0
-383 -341 0
-384 -342 0
-418 -340 0
-419 -341 0
-420 -342 0
-400 -343 0
-401 -344 0
-402 -345 0
-499 -343 0
-500 -344 0
-501 -345 0
-523 -343 0
-524 -344 0
-525 -345 0
-349 -346 0
-350 -347 0
-351 -348 0
-421 -346 0
-422 -347 0
-423 -348 0
-430 -349 0
-431 -350 0
-432 -351 0
-454 -352 0
-455 -353 0
-456 -354 0
-499 -352 0
-500 -353 0
-501 -354 0
-523 -364 0
-524 -365 0
-525 -366 0
-484 -367 0
-485 -368 0
-486 -369 0
-508 -370 0
-509 -371 0
-510 -372 0
-478 -373 0
-479 -374 0
-480 -375 0
-403 -379 0
-404 -380 0
-405 -381 0
-475 -382 0
-476 -383 0
-477 -384 0
-463 -388 0
-464 -389 0
-465 -390 0
-433 -391 0
-434 -392 0
-435 -393 0
-493 -391 0
-494 -392 0
-495 -393 0
-418 -394 0
-419 -395 0
-420 -396 0
-451 -394 0
-452 -395 0
-453 -396 0
-427 -400 0
-428 -401 0
-429 -402 0
-415 -409 0
-416 -410 0
-417 -411 0
-424 -409 0
-425 -410 0
-426 -411 0
-487 -409 0
-488 -410 0
-489 -411 0
-523 -409 0
-524 -410 0
-525 -411 0
-475 -412 0
-476 -413 0
-477 -414 0
-439 -415 0
-440 -416 0
-441 -417 0
-457 -418 0
-458 -419 0
-459 -420 0
-466 -421 0
-467 -422 0
-468 -423 0
-487 -421 0
-488 -422 0
-489 -423 0
-436 -424 0
-437 -425 0
-438 -426 0
-508 -424 0
-509 -425 0
-510 -426 0
-463 -427 0
-464 -428 0
-465 -429 0
-496 -427 0
-497 -428 0
-498 -429 0
-502 -427 0
-503 -428 0
-504 -429 0
-445 -430 0
-446 -431 0
-447 -432 0
-484 -433 0
-485 -434 0
-486 -435 0
-472 -436 0
-473 -437 0
-474 -438 0
-502 -436 0
-503 -437 0
-504 -438 0
-454 -442 0
-455 -443 0
-456 -444 0
-454 -448 0
-455 -449 0
-456 -450 0
-511 -451 0
-512 -452 0
-513 -453 0
-469 -460 0
-470 -461 0
-471 -462 0
-472 -460 0
-473 -461 0
-474 -462 0
-478 -469 0
-479 -470 0
-480 -471 0
-484 -478 0
-485 -479 0
-486 -480 0
-505 -484 0
-506 -485 0
-507 -486 0
-517 -490 0
-518 -491 0
-519 -492 0
-511 -493 0
-512 -494 0
-513 -495 0
